20
587 233 220
100 60 40
89 67 34
92 80 38
90 81 24
84 52 38
77 54 46
90 49 33
78 45 27
76 57 28
102 38 27
55 45 39
115 78 29
98 58 53
75 64 44
61 57 20
94 92 78
114 58 42
98 67 27
85 79 45
111 49 22
thpack7_88